NAME: random_70_8
TYPE: TSP
COMMENT: random_70_8
DIMENSION: 70
EDGE_WEIGHT_TYPE: EUC_2D
NODE_COORD_SECTION
1 94 10
2 152 369
3 406 134
4 66 104
5 144 178
6 336 417
7 200 370
8 301 25
9 406 414
10 57 119
11 202 19
12 312 360
13 35 55
14 141 96
15 215 380
16 449 455
17 445 26
18 196 244
19 267 151
20 284 259
21 363 171
22 60 376
23 235 175
24 358 116
25 397 387
26 370 455
27 365 238
28 21 382
29 379 258
30 308 370
31 123 251
32 352 170
33 3 368
34 123 167
35 449 207
36 129 71
37 422 46
38 260 316
39 326 361
40 338 238
41 195 75
42 72 129
43 69 209
44 207 330
45 296 105
46 147 66
47 293 133
48 182 356
49 62 225
50 224 90
51 19 249
52 203 358
53 255 265
54 356 456
55 313 480
56 396 426
57 268 156
58 446 11
59 82 229
60 129 216
61 274 31
62 35 464
63 349 16
64 301 267
65 272 201
66 136 121
67 345 367
68 270 483
69 152 81
70 388 489
